p tdp 20 132
1 4
1 5
1 6
1 7
1 8
1 9
1 11
1 12
1 14
1 15
1 16
1 18
1 20
2 3
2 6
2 7
2 8
2 9
2 11
2 13
2 14
2 15
2 16
2 18
2 19
2 20
3 4
3 6
3 7
3 8
3 10
3 11
3 12
3 14
3 15
3 16
3 17
3 19
3 20
4 5
4 8
4 9
4 10
4 12
4 13
4 14
4 15
4 16
4 18
4 19
5 6
5 8
5 9
5 10
5 11
5 13
5 14
5 15
5 19
5 20
6 7
6 8
6 11
6 13
6 14
6 17
6 18
6 19
7 8
7 9
7 10
7 11
7 12
7 13
7 14
7 15
7 16
7 17
7 18
7 19
7 20
8 9
8 11
8 13
8 15
8 16
8 17
8 18
8 19
8 20
9 11
9 12
9 13
9 17
9 19
9 20
10 11
10 12
10 13
10 20
11 12
11 13
11 15
11 16
11 17
11 19
11 20
12 14
12 15
12 16
12 17
12 18
12 19
12 20
13 14
13 17
13 18
13 19
13 20
14 16
14 17
14 19
14 20
15 20
16 17
16 18
16 19
17 18
17 19
17 20
18 19
18 20
